Maximize
 obj: 14 x1 + 90 x2 + 78 x3 + 94 x4 + 4 x5 + 20 x6 + 29 x7 + 32 x8 + 95 x9 + 47 x10
Subject To
 c1: 21 x1 + 28 x2 + 7 x3 + 17 x4 + 10 x5 + 37 x6 + 31 x7 + 22 x8 + 37 x9 + 44 x10 <= 127
Binary
 x1  x2  x3  x4  x5  x6  x7  x8  x9  x10
End
